
Gurobi 9.5.0 (linux64) logging started Tue Nov  7 19:20:02 2023

Set parameter LogFile to value "/lustre1/scratch/348/vsc34888/JointResearch/05.Models/06.Benchmarking/F.Representative_days_based_on_Line_Benefit_NN_OC_fy_1/RTS24_ByStages_nc90/openStarNet_RTS24_ByStages_nc90.log"
Set parameter Method to value 2
Set parameter MIPFocus to value 1
Set parameter Presolve to value 2
Set parameter RINS to value 100
Set parameter MIPGap to value 0.01
Set parameter Threads to value 36
Set parameter TimeLimit to value 604800
Set parameter IterationLimit to value 760000000
Gurobi Optimizer version 9.5.0 build v9.5.0rc5 (linux64)
Thread count: 36 physical cores, 36 logical processors, using up to 36 threads
Optimize a model with 40053 rows, 22982 columns and 109967 nonzeros
Model fingerprint: 0x6eddfa64
Variable types: 22943 continuous, 39 integer (39 binary)
Coefficient statistics:
  Matrix range     [5e-03, 1e+03]
  Objective range  [1e+00, 1e+00]
  Bounds range     [4e-04, 3e+00]
  RHS range        [4e-04, 3e+00]
Presolve removed 19533 rows and 9794 columns
Presolve time: 0.21s
Presolved: 20520 rows, 13188 columns, 71379 nonzeros
Variable types: 13149 continuous, 39 integer (39 binary)
Found heuristic solution: objective 160.9870654
Root relaxation presolved: 20520 rows, 13188 columns, 71379 nonzeros

Root barrier log...

Ordering time: 0.01s

Barrier statistics:
 Dense cols : 39
 AA' NZ     : 1.518e+05
 Factor NZ  : 4.887e+05 (roughly 18 MB of memory)
 Factor Ops : 1.462e+07 (less than 1 second per iteration)
 Threads    : 36

                  Objective                Residual
Iter       Primal          Dual         Primal    Dual     Compl     Time
   0   5.85205345e+05 -1.38747519e+08  4.21e+00 3.50e+02  9.22e+03     0s
   1   6.33067443e+04 -3.62078125e+07  3.28e-01 8.14e-09  1.13e+03     1s
   2   2.57033350e+04 -4.57056893e+06  1.08e-02 3.25e-09  1.12e+02     1s
   3   1.89490115e+04 -1.99760372e+05  7.80e-13 1.53e-10  5.25e+00     1s
   4   3.93992028e+03 -3.76594119e+04  1.02e-12 2.08e-11  9.98e-01     1s
   5   1.45621873e+03 -1.00039820e+04  4.62e-13 4.78e-12  2.75e-01     1s
   6   5.99797700e+02 -2.88239158e+03  3.46e-13 1.31e-12  8.36e-02     1s
   7   3.40392269e+02 -1.17635531e+03  2.73e-13 9.09e-13  3.64e-02     1s
   8   2.24435475e+02 -2.70522165e+02  2.72e-13 1.82e-12  1.19e-02     1s
   9   1.52911168e+02 -7.03264601e+01  2.93e-13 1.82e-12  5.36e-03     1s
  10   1.21396353e+02  1.76102631e+01  4.44e-13 1.82e-12  2.49e-03     1s
  11   1.05916658e+02  6.18452952e+01  9.27e-13 1.82e-12  1.06e-03     1s
  12   1.00627915e+02  7.84911944e+01  3.43e-12 9.09e-13  5.31e-04     1s
  13   9.83042694e+01  8.27009021e+01  3.03e-12 9.09e-13  3.74e-04     1s
  14   9.72231029e+01  8.64686493e+01  5.39e-12 1.82e-12  2.58e-04     1s
  15   9.62303338e+01  8.91562752e+01  1.13e-11 9.09e-13  1.70e-04     1s
  16   9.58777205e+01  9.00704148e+01  6.49e-12 9.09e-13  1.39e-04     1s
  17   9.57480671e+01  9.10132577e+01  5.87e-12 9.09e-13  1.14e-04     1s
  18   9.52824920e+01  9.29630904e+01  1.22e-11 9.09e-13  5.57e-05     1s
  19   9.51863382e+01  9.40051831e+01  8.55e-12 1.82e-12  2.83e-05     1s
  20   9.51721643e+01  9.40817527e+01  8.98e-12 1.82e-12  2.62e-05     1s
  21   9.50750388e+01  9.45540752e+01  1.20e-11 9.09e-13  1.25e-05     1s
  22   9.50674062e+01  9.45968817e+01  1.31e-11 1.82e-12  1.13e-05     1s
  23   9.49267575e+01  9.46727812e+01  6.15e-11 9.09e-13  6.09e-06     1s
  24   9.49047135e+01  9.47967437e+01  4.41e-11 9.09e-13  2.59e-06     1s
  25   9.48714535e+01  9.48041251e+01  2.78e-10 1.82e-12  1.62e-06     1s
  26   9.48669443e+01  9.48200287e+01  2.51e-10 1.82e-12  1.13e-06     1s
  27   9.48448255e+01  9.48260320e+01  6.18e-10 1.82e-12  4.51e-07     1s
  28   9.48414915e+01  9.48282448e+01  4.23e-10 9.09e-13  3.18e-07     1s
  29   9.48347313e+01  9.48283192e+01  5.99e-10 9.09e-13  1.54e-07     1s
  30   9.48339527e+01  9.48309882e+01  4.91e-10 1.82e-12  7.11e-08     1s
  31   9.48316688e+01  9.48313140e+01  5.08e-10 9.09e-13  8.51e-09     1s
  32   9.48314382e+01  9.48314064e+01  2.70e-10 1.82e-12  7.62e-10     1s
  33   9.48314110e+01  9.48314098e+01  2.13e-09 1.82e-12  2.87e-11     1s
  34   9.48314104e+01  9.48314104e+01  9.61e-11 9.09e-13  1.82e-15     1s

Barrier solved model in 34 iterations and 0.91 seconds (0.81 work units)
Optimal objective 9.48314104e+01


Root relaxation: objective 9.483141e+01, 1612 iterations, 0.63 seconds (0.42 work units)

    Nodes    |    Current Node    |     Objective Bounds      |     Work
 Expl Unexpl |  Obj  Depth IntInf | Incumbent    BestBd   Gap | It/Node Time

     0     0   94.83141    0   10  160.98707   94.83141  41.1%     -    1s
H    0     0                     126.2503935   94.83141  24.9%     -    1s
H    0     0                     126.1639058   97.01836  23.1%     -    1s
     0     0   97.01836    0    9  126.16391   97.01836  23.1%     -    1s
     0     0   97.13500    0    9  126.16391   97.13500  23.0%     -    2s
     0     0   97.23718    0    9  126.16391   97.23718  22.9%     -    2s
     0     0   97.23718    0    9  126.16391   97.23718  22.9%     -    2s
H    0     0                     107.8408838   97.78236  9.33%     -    2s
     0     0   97.78236    0   10  107.84088   97.78236  9.33%     -    2s
     0     0   97.80410    0   10  107.84088   97.80410  9.31%     -    3s
     0     0   97.80626    0   10  107.84088   97.80626  9.31%     -    3s
     0     0   97.80896    0   10  107.84088   97.80896  9.30%     -    3s
     0     0   97.80896    0   10  107.84088   97.80896  9.30%     -    3s
     0     0   98.22742    0   10  107.84088   98.22742  8.91%     -    3s
     0     0   98.24972    0   10  107.84088   98.24972  8.89%     -    3s
     0     0   98.25499    0   10  107.84088   98.25499  8.89%     -    3s
     0     0   98.27014    0   10  107.84088   98.27014  8.87%     -    4s
     0     0   98.27885    0   10  107.84088   98.27885  8.87%     -    4s
     0     0   98.29047    0   10  107.84088   98.29047  8.86%     -    4s
     0     0   98.29413    0   10  107.84088   98.29413  8.85%     -    4s
     0     0   98.29472    0   10  107.84088   98.29472  8.85%     -    4s
     0     0   98.37170    0   10  107.84088   98.37170  8.78%     -    4s
     0     0   98.37235    0   10  107.84088   98.37235  8.78%     -    4s
     0     0   98.37236    0   10  107.84088   98.37236  8.78%     -    4s
     0     0   98.38240    0   10  107.84088   98.38240  8.77%     -    5s
H    0     0                     106.3340102   98.38240  7.48%     -   10s
     0     2   98.38240    0   10  106.33401   98.38240  7.48%     -   11s
   127    40  104.40562    9    6  106.33401  104.30027  1.91%   308   24s
   163    36  104.48994   10    5  106.33401  104.41390  1.81%   286   31s

Cutting planes:
  Gomory: 5
  Implied bound: 134
  MIR: 617
  Relax-and-lift: 5

Explored 298 nodes (69264 simplex iterations) in 33.35 seconds (44.74 work units)
Thread count was 36 (of 36 available processors)

Solution count 5: 106.334 107.841 126.164 ... 160.987

Optimal solution found (tolerance 1.00e-02)
Best objective 1.063340102324e+02, best bound 1.058191288315e+02, gap 0.4842%

Gurobi 9.5.0 (linux64) logging started Tue Nov  7 19:20:41 2023

Set parameter LogFile to value "/lustre1/scratch/348/vsc34888/JointResearch/05.Models/06.Benchmarking/F.Representative_days_based_on_Line_Benefit_NN_OC_fy_1/RTS24_ByStages_nc90/openStarNet_RTS24_ByStages_nc90.log"
Set parameter Method to value 2
Set parameter MIPFocus to value 1
Set parameter Presolve to value 2
Set parameter RINS to value 100
Set parameter MIPGap to value 0.01
Set parameter Threads to value 36
Set parameter TimeLimit to value 604800
Set parameter IterationLimit to value 760000000
No parameters matching 'relax_integrality' found
Gurobi Optimizer version 9.5.0 build v9.5.0rc5 (linux64)
Thread count: 36 physical cores, 36 logical processors, using up to 36 threads
Optimize a model with 40053 rows, 22943 columns and 95888 nonzeros
Model fingerprint: 0x0f5d2589
Coefficient statistics:
  Matrix range     [5e-03, 1e+03]
  Objective range  [1e+00, 1e+00]
  Bounds range     [4e-04, 3e+00]
  RHS range        [4e-04, 3e+01]
Presolve removed 31872 rows and 10892 columns
Presolve time: 0.04s
Presolved: 8181 rows, 12231 columns, 29853 nonzeros

Ordering time: 0.00s

Barrier statistics:
 AA' NZ     : 2.006e+04
 Factor NZ  : 8.655e+04 (roughly 7 MB of memory)
 Factor Ops : 1.285e+06 (less than 1 second per iteration)
 Threads    : 36

                  Objective                Residual
Iter       Primal          Dual         Primal    Dual     Compl     Time
   0   1.05696209e+06 -8.58757679e+08  2.63e+00 7.66e+02  7.44e+04     0s
   1   1.03905594e+05 -1.22710325e+08  2.32e-01 6.80e-11  7.55e+03     0s
   2   4.51695938e+04 -1.61151515e+07  6.01e-02 5.56e-11  9.11e+02     0s
   3   2.80391587e+04 -1.58214684e+06  3.38e-03 5.82e-11  7.91e+01     0s
   4   2.00494439e+04 -1.32979807e+05  1.78e-12 1.35e-09  7.35e+00     0s
   5   1.21759482e+04 -4.07840500e+04  1.02e-12 4.08e-10  2.55e+00     0s
   6   7.61857182e+03 -1.84092068e+04  8.29e-13 1.73e-10  1.25e+00     0s
   7   3.05218891e+03 -5.51720541e+03  4.56e-13 4.97e-11  4.12e-01     0s
   8   9.45135665e+02 -1.57202856e+03  5.32e-13 1.47e-11  1.21e-01     0s
   9   4.50231218e+02 -7.54221712e+02  1.10e-12 2.91e-11  5.79e-02     0s
  10   2.63852162e+02 -1.97959403e+02  1.09e-12 2.29e-12  2.22e-02     0s
  11   1.75571531e+02  1.38804931e+01  1.00e-12 3.64e-12  7.77e-03     0s
  12   1.37335411e+02  6.59056057e+01  1.33e-12 2.91e-11  3.43e-03     0s
  13   1.19994341e+02  8.96217500e+01  2.86e-12 1.82e-12  1.46e-03     0s
  14   1.12055139e+02  1.01128176e+02  4.99e-12 1.46e-11  5.25e-04     0s
  15   1.08121707e+02  1.04628365e+02  2.76e-12 1.46e-11  1.68e-04     0s
  16   1.06452541e+02  1.05981225e+02  1.06e-11 1.46e-11  2.26e-05     0s
  17   1.06373249e+02  1.06236360e+02  2.68e-11 1.46e-11  6.58e-06     0s
  18   1.06334850e+02  1.06317487e+02  5.23e-11 1.46e-11  8.34e-07     0s
  19   1.06334065e+02  1.06332840e+02  1.08e-10 7.28e-12  5.89e-08     0s
  20   1.06334012e+02  1.06334003e+02  1.04e-10 1.46e-11  4.37e-10     0s
  21   1.06334010e+02  1.06334010e+02  3.15e-11 1.46e-11  6.31e-16     0s

Barrier solved model in 21 iterations and 0.18 seconds (0.13 work units)
Optimal objective 1.06334010e+02

Crossover log...

    1096 DPushes remaining with DInf 0.0000000e+00                 0s
       0 DPushes remaining with DInf 0.0000000e+00                 0s

     507 PPushes remaining with PInf 0.0000000e+00                 0s
       0 PPushes remaining with PInf 0.0000000e+00                 0s

  Push phase complete: Pinf 0.0000000e+00, Dinf 4.9742484e-12      0s

Iteration    Objective       Primal Inf.    Dual Inf.      Time
     620    1.0633401e+02   0.000000e+00   0.000000e+00      0s

Use crossover to convert LP symmetric solution to basic solution...
Crossover log...

       0 DPushes remaining with DInf 0.0000000e+00                 0s

     293 PPushes remaining with PInf 0.0000000e+00                 0s
       0 PPushes remaining with PInf 0.0000000e+00                 0s

  Push phase complete: Pinf 0.0000000e+00, Dinf 1.5418813e-12      0s

Iteration    Objective       Primal Inf.    Dual Inf.      Time
     929    1.0633401e+02   0.000000e+00   0.000000e+00      0s

Solved in 929 iterations and 0.27 seconds (0.17 work units)
Optimal objective  1.063340102e+02
